48
75
60	3
59	4
57	3
55	3
54	3
53	1
52	2
51	1
50	1
49	5
48	3
47	1
46	1
45	3
44	2
43	3
42	7
41	1
40	2
39	1
38	1
37	1
36	2
35	1
33	2
32	1
31	3
30	1
29	2
28	2
27	2
26	2
25	1
24	1
23	2
22	2
21	5
18	2
17	1
16	1
14	1
13	2
12	2
11	2
10	1
9	1
8	3
7	3
